Geographic Exponential Decay
80 176 4 100 87 158 193 36 303 174 75 51 28 126 280 268 249 272 252 72 116 238 241 308 316 169 131 203 25 256 181 52 236 274 248 104 88 156 153 250 291 220 223 91 205 165 218 260 11 46 68 103 125 108 195 110 55 219 266 175 140 134 247 289 146 217 173 179 194 144 71 69 112 253 92 123 16 313 145 160 138
p edge 320 322
e 0 179 32.0
e 1 87 38.0
e 1 0 9.0
e 2 180 1.0
e 2 1 2.0
e 3 61 18.0
e 3 2 1.0
e 4 128 13.0
e 4 37 100.0
e 4 5 55.0
e 4 3 20.0
e 6 63 21.0
e 6 4 99.0
e 7 253 59.0
e 8 115 1.0
e 8 6 17.0
e 9 116 75.0
e 9 8 3.0
e 10 25 34.0
e 11 290 53.0
e 11 141 63.0
e 11 193 15.0
e 11 9 37.0
e 12 13 23.0
e 12 11 86.0
e 14 30 2.0
e 14 12 10.0
e 15 118 21.0
e 15 14 2.0
e 16 230 36.0
e 16 251 15.0
e 16 311 36.0
e 16 15 24.0
e 17 301 3.0
e 17 16 16.0
e 18 231 21.0
e 18 17 23.0
e 19 92 98.0
e 19 18 16.0
e 20 291 3.0
e 20 19 1.0
e 21 307 2.0
e 21 20 1.0
e 22 36 53.0
e 22 21 1.0
e 23 227 2.0
e 23 22 3.0
e 24 160 22.0
e 24 23 3.0
e 25 169 52.0
e 25 130 75.0
e 26 27 6.0
e 26 24 1.0
e 28 205 86.0
e 28 112 91.0
e 28 241 34.0
e 29 292 6.0
e 29 26 8.0
e 31 200 1.0
e 31 29 12.0
e 32 48 1.0
e 32 31 1.0
e 33 147 16.0
e 33 32 5.0
e 34 211 2.0
e 34 33 13.0
e 35 268 58.0
e 35 34 2.0
e 36 54 14.0
e 36 113 47.0
e 38 46 17.0
e 38 35 1.0
e 39 142 3.0
e 39 38 3.0
e 40 202 1.0
e 40 39 1.0
e 41 42 4.0
e 41 40 4.0
e 43 162 4.0
e 43 41 2.0
e 44 210 5.0
e 44 43 1.0
e 45 129 1.0
e 45 44 3.0
e 46 166 83.0
e 46 86 27.0
e 47 49 4.0
e 47 45 5.0
e 50 291 32.0
e 51 228 91.0
e 51 52 29.0
e 51 317 38.0
e 51 47 80.0
e 52 221 96.0
e 52 58 47.0
e 53 125 45.0
e 53 51 69.0
e 55 56 73.0
e 55 277 53.0
e 55 57 18.0
e 55 53 24.0
e 59 60 5.0
e 59 55 33.0
e 61 122 34.0
e 62 254 5.0
e 62 59 4.0
e 64 91 92.0
e 64 62 5.0
e 65 294 11.0
e 65 64 1.0
e 66 67 1.0
e 66 65 2.0
e 68 155 78.0
e 68 69 63.0
e 68 70 25.0
e 68 66 46.0
e 69 287 6.0
e 69 71 2.0
e 71 199 90.0
e 71 278 83.0
e 72 285 5.0
e 72 116 29.0
e 72 73 33.0
e 74 75 39.0
e 74 76 17.0
e 74 68 4.0
e 75 297 44.0
e 75 182 65.0
e 77 153 42.0
e 77 74 24.0
e 78 216 4.0
e 78 77 8.0
e 79 80 16.0
e 79 78 21.0
e 81 121 1.0
e 81 79 1.0
e 82 198 3.0
e 82 81 2.0
e 83 246 1.0
e 83 82 5.0
e 84 91 41.0
e 85 255 3.0
e 85 83 1.0
e 87 213 96.0
e 87 217 19.0
e 88 89 89.0
e 88 90 37.0
e 88 232 67.0
e 89 146 85.0
e 91 212 19.0
e 92 138 97.0
e 92 203 92.0
e 93 94 1.0
e 93 85 1.0
e 95 156 14.0
e 95 93 2.0
e 96 108 60.0
e 96 95 1.0
e 97 312 5.0
e 97 96 2.0
e 98 152 1.0
e 98 97 1.0
e 99 131 83.0
e 100 209 34.0
e 100 101 66.0
e 100 233 48.0
e 100 98 66.0
e 102 291 22.0
e 103 174 74.0
e 103 104 7.0
e 103 112 34.0
e 104 105 75.0
e 104 293 16.0
e 106 232 5.0
e 107 261 1.0
e 107 100 31.0
e 108 150 54.0
e 108 109 95.0
e 110 214 17.0
e 110 196 8.0
e 110 111 80.0
e 110 107 91.0
e 112 234 48.0
e 114 116 28.0
e 117 190 1.0
e 117 110 35.0
e 119 226 2.0
e 119 117 1.0
e 120 123 39.0
e 123 124 27.0
e 123 195 78.0
e 125 126 13.0
e 125 258 63.0
e 126 131 24.0
e 126 282 67.0
e 127 203 58.0
e 131 132 7.0
e 133 229 1.0
e 133 119 2.0
e 134 135 87.0
e 134 158 34.0
e 134 240 7.0
e 136 295 5.0
e 136 133 1.0
e 137 241 94.0
e 138 247 83.0
e 138 139 57.0
e 140 143 78.0
e 140 144 9.0
e 140 145 11.0
e 144 145 99.0
e 144 256 66.0
e 145 146 49.0
e 146 222 95.0
e 148 149 2.0
e 148 136 2.0
e 151 247 12.0
e 153 259 87.0
e 153 235 1.0
e 154 161 1.0
e 154 148 2.0
e 156 157 30.0
e 156 308 83.0
e 158 272 95.0
e 158 191 84.0
e 159 160 57.0
e 160 163 61.0
e 164 215 4.0
e 164 154 3.0
e 165 167 58.0
e 165 168 37.0
e 165 236 33.0
e 165 164 77.0
e 169 253 69.0
e 169 170 22.0
e 171 172 4.0
e 171 165 89.0
e 173 174 44.0
e 173 223 11.0
e 173 175 94.0
e 174 175 69.0
e 175 176 22.0
e 176 177 17.0
e 176 178 52.0
e 179 181 8.0
e 179 272 69.0
e 181 183 36.0
e 181 263 74.0
e 184 185 1.0
e 184 171 4.0
e 186 283 1.0
e 186 184 4.0
e 187 239 1.0
e 187 186 1.0
e 188 274 15.0
e 189 236 41.0
e 192 236 32.0
e 193 194 57.0
e 193 219 21.0
e 194 195 51.0
e 194 219 47.0
e 195 197 13.0
e 201 203 11.0
e 204 302 2.0
e 204 187 9.0
e 205 206 95.0
e 205 207 29.0
e 208 217 9.0
e 217 248 13.0
e 218 219 85.0
e 218 220 5.0
e 218 309 13.0
e 220 223 39.0
e 220 224 62.0
e 223 225 78.0
e 237 238 47.0
e 238 241 89.0
e 238 242 88.0
e 243 244 1.0
e 243 204 1.0
e 245 247 19.0
e 248 256 76.0
e 248 249 90.0
e 249 280 26.0
e 249 250 3.0
e 250 270 70.0
e 250 252 35.0
e 252 253 35.0
e 252 274 74.0
e 256 257 90.0
e 260 262 28.0
e 260 264 77.0
e 260 265 55.0
e 260 243 49.0
e 266 267 5.0
e 266 268 17.0
e 266 269 41.0
e 268 271 9.0
e 272 296 19.0
e 273 274 41.0
e 275 276 1.0
e 275 260 49.0
e 279 280 33.0
e 280 281 52.0
e 284 286 5.0
e 284 275 13.0
e 288 289 23.0
e 288 284 8.0
e 289 298 8.0
e 289 299 43.0
e 300 303 16.0
e 300 288 1.0
e 303 304 65.0
e 303 305 52.0
e 306 318 1.0
e 306 300 4.0
e 308 310 100.0
e 308 313 55.0
e 313 314 3.0
e 313 315 45.0
e 316 319 93.0
e 316 306 91.0
